qbf_easy_train/easy_2708_SAT.qdimacs
p cnf 48 148
a 9 11 0
e 1 2 3 4 5 6 7 8 10 12 13 14 15 16 17 18 19 20 21 22 23 24 25 26 27 28 29 30 31 32 33 34 35 36 37 38 39 40 41 42 43 44 45 46 47 48 0
-1 2 -3 0
1 -2 -3 0
-1 -2 3 0
1 2 3 0
5 -3 0
5 4 0
3 -4 -5 0
7 6 0
7 6 0
-6 -7 0
8 -5 0
8 7 0
5 -7 -8 0
9 10 -11 0
-9 -10 -11 0
9 -10 11 0
-9 10 11 0
-12 -4 0
-12 1 0
4 -1 12 0
-11 -12 -13 0
11 12 -13 0
-11 12 13 0
11 -12 13 0
14 -9 0
14 -1 0
9 1 -14 0
-14 -2 -15 0
14 2 -15 0
-14 2 15 0
14 -2 15 0
9 6 -16 0
-9 -6 -16 0
9 -6 16 0
-9 6 16 0
17 15 0
17 16 0
-15 -16 -17 0
19 18 0
19 -1 0
-18 1 -19 0
19 20 0
-19 20 0
17 -20 -21 0
-17 20 -21 0
17 20 21 0
-17 -20 21 0
6 -18 -22 0
-6 18 -22 0
6 18 22 0
-6 -18 22 0
19 -22 -23 0
-19 22 -23 0
19 22 23 0
-19 -22 23 0
21 -23 -24 0
-21 23 -24 0
21 23 24 0
-21 -23 24 0
25 2 0
25 14 0
-2 -14 -25 0
27 9 0
27 -26 0
-9 26 -27 0
-28 -25 0
-28 27 0
25 -27 28 0
-29 4 0
-29 3 0
-4 -3 29 0
-30 -28 0
-30 -29 0
28 29 30 0
-31 -2 0
-31 -18 0
2 18 31 0
-32 30 0
-32 31 0
-30 -31 32 0
15 -4 -33 0
-15 4 -33 0
15 4 33 0
-15 -4 33 0
-34 33 0
-34 -14 0
-33 14 34 0
-35 -14 0
-35 27 0
14 -27 35 0
36 -6 0
36 -26 0
6 26 -36 0
35 -36 -37 0
-35 36 -37 0
35 36 37 0
-35 -36 37 0
-38 -34 0
-38 37 0
34 -37 38 0
39 -32 0
39 -38 0
32 38 -39 0
18 -19 -40 0
-18 19 -40 0
18 19 40 0
-18 -19 40 0
41 16 0
41 31 0
-16 -31 -41 0
-42 41 0
-42 -18 0
-41 18 42 0
42 -2 -43 0
-42 2 -43 0
42 2 43 0
-42 -2 43 0
-40 -43 -44 0
40 43 -44 0
-40 43 44 0
40 -43 44 0
-45 -39 0
-45 44 0
39 -44 45 0
24 45 -46 0
-24 -45 -46 0
24 -45 46 0
-24 45 46 0
47 13 0
47 -46 0
-13 46 -47 0
48 8 0
48 -47 0
-8 47 -48 0
-9 3 42 22 -15 20 0
-38 39 31 0
4 45 -34 47 2 0
-48 -41 -29 -31 0
41 27 -45 -21 6 28 11 10 0
10 45 28 -20 -23 -18 -34 0
19 -12 27 38 -6 0
28 2 -21 48 15 -46 11 0
-32 17 7 -5 12 24 18 -20 0
-7 22 48 5 34 0
25 -40 19 0
12 -5 -32 -15 18 0
3 6 -14 0
48 0
