sat_easy_train/easy_2708_SAT.dimacs
p cnf 143 493
4 2 0
4 3 0
-2 -3 -4 0
5 -1 0
5 4 0
1 -4 -5 0
-6 7 -8 0
6 -7 -8 0
-6 -7 8 0
6 7 8 0
4 -2 -9 0
-4 2 -9 0
4 2 9 0
-4 -2 9 0
-11 -9 0
-11 -10 0
9 10 11 0
-12 8 0
-12 -11 0
-8 11 12 0
5 -12 -13 0
-5 12 -13 0
5 12 13 0
-5 -12 13 0
-14 1 0
-14 -13 0
-1 13 14 0
17 3 0
17 -16 0
-3 16 -17 0
-15 17 -18 0
15 -17 -18 0
-15 -17 18 0
15 17 18 0
19 10 0
19 -4 0
-10 4 -19 0
18 -19 -20 0
-18 19 -20 0
18 19 20 0
-18 -19 20 0
-21 -14 0
-21 20 0
14 -20 21 0
-23 22 0
-23 6 0
-22 -6 23 0
24 15 0
24 -8 0
-15 8 -24 0
23 24 -25 0
-23 -24 -25 0
23 -24 25 0
-23 24 25 0
25 -17 -26 0
-25 17 -26 0
25 17 26 0
-25 -17 26 0
-27 10 0
-27 26 0
-10 -26 27 0
-28 -21 0
-28 -27 0
21 27 28 0
1 -8 -29 0
-1 8 -29 0
1 8 29 0
-1 -8 29 0
31 29 0
31 -30 0
-29 30 -31 0
-32 28 0
-32 -31 0
-28 31 32 0
33 22 0
33 -10 0
-22 10 -33 0
34 33 0
34 -15 0
-33 15 -34 0
-35 19 0
-35 34 0
-19 -34 35 0
35 11 -36 0
-35 -11 -36 0
35 -11 36 0
-35 11 36 0
-37 -32 0
-37 -36 0
32 36 37 0
38 -39 -40 0
-38 39 -40 0
38 39 40 0
-38 -39 40 0
41 25 0
41 40 0
-25 -40 -41 0
42 -11 0
42 41 0
11 -41 -42 0
-43 -19 0
-43 33 0
19 -33 43 0
-44 10 0
-44 -43 0
-10 43 44 0
45 42 0
45 -44 0
-42 44 -45 0
-29 -47 -48 0
29 47 -48 0
-29 47 48 0
29 -47 48 0
1 48 -49 0
-1 -48 -49 0
1 -48 49 0
-1 48 49 0
51 49 0
51 -50 0
-49 50 -51 0
52 39 0
52 51 0
-39 -51 -52 0
53 46 0
53 -52 0
-46 52 -53 0
54 -47 0
54 -4 0
47 4 -54 0
3 -54 -55 0
-3 54 -55 0
3 54 55 0
-3 -54 55 0
-56 -53 0
-56 -55 0
53 55 56 0
57 7 0
57 -3 0
-7 3 -57 0
58 -57 0
58 -15 0
57 15 -58 0
59 -5 0
59 24 0
5 -24 -59 0
-60 -23 0
-60 -10 0
23 10 60 0
-61 -33 0
-61 29 0
33 -29 61 0
62 61 0
62 -6 0
-61 6 -62 0
63 60 0
63 62 0
-60 -62 -63 0
-64 18 0
-64 -63 0
-18 63 64 0
66 -6 0
66 -65 0
6 65 -66 0
-67 -66 0
-67 1 0
66 -1 67 0
50 67 -68 0
-50 -67 -68 0
50 -67 68 0
-50 67 68 0
-34 41 -69 0
34 -41 -69 0
-34 -41 69 0
34 41 69 0
-54 69 -70 0
54 -69 -70 0
-54 -69 70 0
54 69 70 0
-68 -70 -71 0
68 70 -71 0
-68 70 71 0
68 -70 71 0
72 64 0
72 -71 0
-64 71 -72 0
-73 -59 0
-73 -72 0
59 72 73 0
-2 -12 -74 0
2 12 -74 0
-2 12 74 0
2 -12 74 0
75 16 0
75 -57 0
-16 57 -75 0
74 75 -76 0
-74 -75 -76 0
74 -75 76 0
-74 75 76 0
-73 -76 -77 0
73 76 -77 0
-73 76 77 0
73 -76 77 0
-78 58 0
-78 77 0
-58 -77 78 0
-79 -56 0
-79 -78 0
56 78 79 0
80 45 0
80 -79 0
-45 79 -80 0
-81 37 0
-81 -80 0
-37 80 81 0
-82 43 0
-82 -61 0
-43 61 82 0
-25 82 -83 0
25 -82 -83 0
-25 -82 83 0
25 82 83 0
-84 -83 0
-84 -83 0
83 84 0
-50 48 -85 0
50 -48 -85 0
-50 -48 85 0
50 48 85 0
86 -49 0
86 -85 0
49 85 -86 0
84 -86 -87 0
-84 86 -87 0
84 86 87 0
-84 -86 87 0
18 -24 -88 0
-18 24 -88 0
18 24 88 0
-18 -24 88 0
88 -63 -89 0
-88 63 -89 0
88 63 89 0
-88 -63 89 0
90 -87 0
90 89 0
87 -89 -90 0
-38 3 -91 0
38 -3 -91 0
-38 -3 91 0
38 3 91 0
33 19 -92 0
-33 -19 -92 0
33 -19 92 0
-33 19 92 0
93 -91 0
93 -92 0
91 92 -93 0
-74 -50 -94 0
74 50 -94 0
-74 50 94 0
74 -50 94 0
-93 -94 -95 0
93 94 -95 0
-93 94 95 0
93 -94 95 0
-24 -38 -96 0
24 38 -96 0
-24 38 96 0
24 -38 96 0
-97 96 0
-97 14 0
-96 -14 97 0
14 75 -98 0
-14 -75 -98 0
14 -75 98 0
-14 75 98 0
-99 34 0
-99 98 0
-34 -98 99 0
-100 -97 0
-100 -99 0
97 99 100 0
-8 10 -101 0
8 -10 -101 0
-8 -10 101 0
8 10 101 0
-102 9 0
-102 -101 0
-9 101 102 0
102 -69 -103 0
-102 69 -103 0
102 69 103 0
-102 -69 103 0
104 24 0
104 -41 0
-24 41 -104 0
-105 -103 0
-105 -104 0
103 104 105 0
100 -105 -106 0
-100 105 -106 0
100 105 106 0
-100 -105 106 0
95 106 -107 0
-95 -106 -107 0
95 -106 107 0
-95 106 107 0
90 107 -108 0
-90 -107 -108 0
90 -107 108 0
-90 107 108 0
81 -108 -109 0
-81 108 -109 0
81 108 109 0
-81 -108 109 0
-38 -34 -110 0
38 34 -110 0
-38 34 110 0
38 -34 110 0
-111 66 0
-111 25 0
-66 -25 111 0
-112 -111 0
-112 65 0
111 -65 112 0
-110 -112 -113 0
110 112 -113 0
-110 112 113 0
110 -112 113 0
114 -20 0
114 61 0
20 -61 -114 0
115 -111 0
115 114 0
111 -114 -115 0
-116 -8 0
-116 -101 0
8 101 116 0
115 116 -117 0
-115 -116 -117 0
115 -116 117 0
-115 116 117 0
-118 74 0
-118 75 0
-74 -75 118 0
-118 17 -119 0
118 -17 -119 0
-118 -17 119 0
118 17 119 0
-120 117 0
-120 -119 0
-117 119 120 0
-113 -120 -121 0
113 120 -121 0
-113 120 121 0
113 -120 121 0
122 -109 0
122 -121 0
109 121 -122 0
-123 3 0
-123 -50 0
-3 50 123 0
60 123 -124 0
-60 -123 -124 0
60 -123 124 0
-60 123 124 0
-125 -124 0
-125 3 0
124 -3 125 0
126 6 0
126 38 0
-6 -38 -126 0
-127 38 0
-127 -111 0
-38 111 127 0
128 1 0
128 29 0
-1 -29 -128 0
129 127 0
129 -128 0
-127 128 -129 0
-130 126 0
-130 129 0
-126 -129 130 0
-131 125 0
-131 -130 0
-125 130 131 0
15 8 -132 0
-15 -8 -132 0
15 -8 132 0
-15 8 132 0
-118 69 -133 0
118 -69 -133 0
-118 -69 133 0
118 69 133 0
134 -132 0
134 133 0
132 -133 -134 0
57 11 -135 0
-57 -11 -135 0
57 -11 135 0
-57 11 135 0
-136 -135 0
-136 102 0
135 -102 136 0
137 -24 0
137 123 0
24 -123 -137 0
138 -136 0
138 -137 0
136 137 -138 0
75 112 -139 0
-75 -112 -139 0
75 -112 139 0
-75 112 139 0
-140 -138 0
-140 -139 0
138 139 140 0
-141 -134 0
-141 -140 0
134 140 141 0
-142 131 0
-142 -141 0
-131 141 142 0
143 -122 0
143 142 0
122 -142 -143 0
18 -115 -111 -118 0
141 62 -73 90 78 0
31 138 0
-9 -54 -44 139 0
-56 -14 21 0
-72 18 0
35 14 118 100 -56 0
141 -117 119 -51 -19 0
-38 -51 93 0
36 -46 -8 76 0
13 -60 -88 17 0
135 -90 102 -71 -100 0
30 -55 -89 106 0
82 -100 -76 0
-103 -27 142 95 -65 -58 0
9 -30 0
92 -95 -128 -26 0
6 103 9 96 111 0
71 23 108 0
59 -116 13 -100 -121 86 0
-23 140 125 51 -71 0
139 120 87 0
127 17 -69 -91 -134 18 0
-11 60 -143 0
-67 29 -80 82 -127 -134 0
-143 -79 56 0
-101 43 0
90 -27 38 0
-42 -41 -58 68 -138 0
65 -27 77 0
53 104 -22 24 107 113 0
-35 10 -71 0
-92 56 137 133 0
-113 93 -38 -37 0
-27 -61 0
-38 29 -73 0
105 -79 26 -30 0
51 105 -26 -95 -94 0
66 -99 26 143 0
-105 119 39 -111 0
-50 -24 -85 121 -13 -22 0
10 -142 -56 5 39 0
94 -54 -79 -69 -37 0
-40 101 -81 -42 33 -56 0
48 -37 137 -74 104 0
69 -72 137 -126 -32 -94 0
-67 13 0
66 -34 -8 -18 0
124 -112 0
48 -2 -100 -65 0
-30 57 -65 0
63 73 -15 44 0
45 105 0
125 119 138 32 46 52 0
-142 -85 -139 0
-143 110 10 -105 76 0
42 34 54 -24 0
56 73 0
78 -89 -132 -64 0
-11 68 -9 -106 0
102 -110 0
-4 84 -52 70 0
-129 122 0
72 92 -44 19 -134 -137 0
143 0
